NAME: random problem
TYPE: MTSP
COMMENT: MTSP problem for MRS UAV summer school
DIMENSION: 20
NUMBER_OF_ROBOTS: 2
START_TARGET_INDEXES: 1, 2
NEIGHBORHOOD_RADIUS: 2
EDGE_WEIGHT_TYPE: EUC_2D
NODE_COORD_SECTION
1 15.0 -21.0
2 -5.0 -25.0
3 33.3 5.4
4 28.2 16.3
5 12.7 18.3
6 5.2 1.2
7 -7.8 -11.8
8 1.5 4.9
9 34.1 -6.8
10 -14.2 -9.7
11 -16.1 -27.3
12 22.1 -4.2
13 -29.2 -3.8
14 -12.7 -28.8
15 26.6 -24.4
16 20.0 -3.7
17 -27.6 8.1
18 -35.6 -6.0
19 -31.2 -27.0
20 -4.3 -11.9
EOF
